job_count = 28 ;
duration = [|5, 10, 9|29, 12, 5|26, 9, 4|13, 11, 4|6, 4, 4|21, 11, 2|27, 13, 2|8, 19, 5|7, 4, 3|17, 2, 8|23, 10, 6|29, 10, 4|8, 4, 2|27, 6, 6|21, 2, 4|28, 2, 5|7, 7, 5|9, 15, 9|5, 7, 3|18, 13, 6|9, 10, 8|14, 13, 9|22, 16, 7|6, 8, 8|19, 12, 8|22, 2, 3|18, 9, 9|16, 16, 7|] ;
machine_count = 3 ;
cost = [|16, 34, 58|10, 32, 31|15, 21, 43|12, 35, 44|11, 20, 49|13, 25, 43|14, 39, 46|19, 24, 36|14, 31, 52|18, 28, 49|14, 22, 35|19, 39, 30|16, 30, 58|16, 22, 39|11, 29, 41|16, 21, 37|13, 28, 59|14, 22, 41|13, 36, 32|14, 24, 48|15, 20, 46|18, 26, 41|11, 22, 42|10, 38, 42|12, 25, 44|19, 28, 41|10, 28, 32|11, 23, 51|] ;
deadline = [62, 62, 62, 62, 62, 62, 62, 62, 62, 62, 62, 62, 62, 62, 62, 62, 62, 62, 62, 62, 62, 62, 62, 62, 62, 62, 62, 62] ;
release = [0, 0, 0, 0, 0, 0, 0, 0, 0, 0, 0, 0, 0, 0, 0, 0, 0, 0, 0, 0, 0, 0, 0, 0, 0, 0, 0, 0] ;
resource = [|6, 6, 6|2, 2, 2|1, 1, 1|6, 6, 6|3, 3, 3|6, 6, 6|2, 2, 2|3, 3, 3|5, 5, 5|8, 8, 8|6, 6, 6|9, 9, 9|4, 4, 4|2, 2, 2|7, 7, 7|8, 8, 8|2, 2, 2|5, 5, 5|4, 4, 4|5, 5, 5|5, 5, 5|6, 6, 6|2, 2, 2|3, 3, 3|5, 5, 5|2, 2, 2|4, 4, 4|1, 1, 1|] ;
capacities = [10, 10, 10] ;
